p cnf 444 179
-111 -112 0
-111 -113 0
-111 -114 0
-112 -113 0
-112 -114 0
-113 -114 0
-121 -122 0
-121 -123 0
-121 -124 0
-122 -123 0
-122 -124 0
-123 -124 0
-131 -132 0
-131 -133 0
-131 -134 0
-132 -133 0
-132 -134 0
-133 -134 0
-141 -142 0
-141 -143 0
-141 -144 0
-142 -143 0
-142 -144 0
-143 -144 0
-211 -212 0
-211 -213 0
-211 -214 0
-212 -213 0
-212 -214 0
-213 -214 0
-221 -222 0
-221 -223 0
-221 -224 0
-222 -223 0
-222 -224 0
-223 -224 0
-231 -232 0
-231 -233 0
-231 -234 0
-232 -233 0
-232 -234 0
-233 -234 0
-241 -242 0
-241 -243 0
-241 -244 0
-242 -243 0
-242 -244 0
-243 -244 0
-311 -312 0
-311 -313 0
-311 -314 0
-312 -313 0
-312 -314 0
-313 -314 0
-321 -322 0
-321 -323 0
-321 -324 0
-322 -323 0
-322 -324 0
-323 -324 0
-331 -332 0
-331 -333 0
-331 -334 0
-332 -333 0
-332 -334 0
-333 -334 0
-341 -342 0
-341 -343 0
-341 -344 0
-342 -343 0
-342 -344 0
-343 -344 0
-411 -412 0
-411 -413 0
-411 -414 0
-412 -413 0
-412 -414 0
-413 -414 0
-421 -422 0
-421 -423 0
-421 -424 0
-422 -423 0
-422 -424 0
-423 -424 0
-431 -432 0
-431 -433 0
-431 -434 0
-432 -433 0
-432 -434 0
-433 -434 0
-441 -442 0
-441 -443 0
-441 -444 0
-442 -443 0
-442 -444 0
-443 -444 0
111 121 211 221 0
111 112 211 212 0
111 121 112 122 0
112 122 212 222 0
121 122 221 222 0
211 221 212 222 0
113 123 213 223 0
131 132 231 232 0
311 321 312 322 0
114 124 214 224 0
141 142 241 242 0
411 421 412 422 0
131 141 231 241 0
113 114 213 214 0
131 141 132 142 0
132 142 232 242 0
123 124 223 224 0
231 241 232 242 0
133 143 233 243 0
133 134 233 234 0
331 341 332 342 0
134 144 234 244 0
143 144 243 244 0
431 441 432 442 0
311 321 411 421 0
311 312 411 412 0
113 123 114 124 0
312 322 412 422 0
321 322 421 422 0
213 223 214 224 0
313 323 413 423 0
331 332 431 432 0
313 323 314 324 0
314 324 414 424 0
341 342 441 442 0
413 423 414 424 0
331 341 431 441 0
313 314 413 414 0
133 143 134 144 0
332 342 432 442 0
323 324 423 424 0
233 243 234 244 0
333 343 433 443 0
333 334 433 434 0
333 343 334 344 0
334 344 434 444 0
343 344 443 444 0
433 443 434 444 0
111 121 131 141 0
112 122 132 142 0
113 123 133 143 0
114 124 134 144 0
211 221 231 241 0
212 222 232 242 0
213 223 233 243 0
214 224 234 244 0
311 321 331 341 0
312 322 332 342 0
313 323 333 343 0
314 324 334 344 0
411 421 431 441 0
412 422 432 442 0
413 423 433 443 0
414 424 434 444 0
111 211 311 411 0
112 212 312 412 0
113 213 313 413 0
114 214 314 414 0
121 221 321 421 0
122 222 322 422 0
123 223 323 423 0
124 224 324 424 0
131 231 331 431 0
132 232 332 432 0
133 233 333 433 0
134 234 334 434 0
141 241 341 441 0
142 242 342 442 0
143 243 343 443 0
144 244 344 444 0
114 0
241 0
322 0
